data;
param n:=50;
param w:=1 -254 2 176 3 -203 4 206 5 203 6 170 7 -259 8 -184 9 13 10 218 11 118 12 -246 13 -154 14 93 15 -183 16 -81 17 -59 18 92 19 -95 20 168 21 -66 22 103 23 33 24 176 25 28 26 9 27 198 28 -62 29 -94 30 -13 31 118 32 -129 33 -26 34 -126 35 -28 36 35 37 128 38 13 39 -20 40 -260 41 6 42 -109 43 163 44 64 45 -185 46 -18 47 173 48 28 49 -26 50 148;
